5239900198617985141502,9,1,2,01,6,1,2,015,14,1,2,08,14,1,2,012,9,1,2,010,14,1,2,07,2,1,2,06,1,1,2,012,3,1,2,012,8,1,2,010,14,1,2,01,12,1,2,04,1,1,2,07,2,1,2,08,2,1,2,015,6,1,2,07,12,1,2,03,15,1,2,05,2,1,2,014,14,1,2,07,13,1,2,09,9,1,2,05,15,1,2,012,15,1,2,08,9,1,2,013,3,1,2,09,2,1,2,07,8,1,2,011,8,1,2,011,9,1,2,05,12,1,2,06,14,1,2,012,8,1,2,07,11,1,2,04,5,1,2,08,14,1,2,04,6,1,2,02,10,1,2,05,13,1,2,015,13,1,2,01,10,1,2,08,10,1,2,03,10,1,2,015,11,1,2,011,10,1,2,02,14,1,2,01,15,1,2,09,3,1,2,012,1,1,2,012,1,1,2,0